(set-logic QF_NRA)
(set-info :source |Benchmarks generated from hycomp (https://es-static.fbk.eu/tools/hycomp/). BMC instances of non-linear hybrid automata taken from: Alessandro Cimatti, Sergio Mover, Stefano Tonetta, A quantifier-free SMT encoding of non-linear hybrid automata, FMCAD 2012 and Alessandro Cimatti, Sergio Mover, Stefano Tonetta, Quantier-free encoding of invariants for Hybrid Systems, Formal Methods in System Design. This instance solves a BMC problem of depth 3 and uses the encoding obtained with quantifier elimination using qepcad encoding. Contacts: Sergio Mover (mover@fbk.eu), Stefano Tonetta (tonettas@fbk.eu), Alessandro Cimatti (cimatti@fbk.eu).|)
(set-info :smt-lib-version 2.0)
(set-info :category "industrial")
(set-info :status unsat)
;; MathSAT API call trace
;; generated on Mon Mar 19 10:39:04 2012
(declare-fun b.event_is_timed__AT0 () Bool)
(declare-fun b.time__AT0 () Real)
(declare-fun b.EVENT.1__AT1 () Bool)
(declare-fun b.counter.1__AT2 () Bool)
(declare-fun b.delta__AT0 () Real)
(declare-fun b.y__AT2 () Real)
(declare-fun b.event_is_timed__AT3 () Bool)
(declare-fun b.y__AT0 () Real)
(declare-fun b.speed_y__AT2 () Real)
(declare-fun b.event_is_timed__AT2 () Bool)
(declare-fun b.counter.0__AT0 () Bool)
(declare-fun b.EVENT.1__AT0 () Bool)
(declare-fun b.EVENT.0__AT0 () Bool)
(declare-fun b.counter.3__AT0 () Bool)
(declare-fun b.counter.1__AT0 () Bool)
(declare-fun b.y__AT3 () Real)
(declare-fun b.bool_atom__AT1 () Bool)
(declare-fun b.counter.0__AT3 () Bool)
(declare-fun b.counter.2__AT2 () Bool)
(declare-fun b.counter.1__AT3 () Bool)
(declare-fun b.time__AT2 () Real)
(declare-fun b.counter.3__AT2 () Bool)
(declare-fun b.x__AT3 () Real)
(declare-fun b.counter.2__AT3 () Bool)
(declare-fun b.delta__AT2 () Real)
(declare-fun b.bool_atom__AT2 () Bool)
(declare-fun b.EVENT.1__AT3 () Bool)
(declare-fun b.EVENT.0__AT2 () Bool)
(declare-fun b.g__AT0 () Real)
(declare-fun b.event_is_timed__AT1 () Bool)
(declare-fun b.speed_y__AT0 () Real)
(declare-fun b.EVENT.1__AT2 () Bool)
(declare-fun b.y__AT1 () Real)
(declare-fun b.counter.2__AT0 () Bool)
(declare-fun b.speed_y__AT3 () Real)
(declare-fun b.counter.0__AT1 () Bool)
(declare-fun b.counter.1__AT1 () Bool)
(declare-fun b.counter.2__AT1 () Bool)
(declare-fun b.time__AT3 () Real)
(declare-fun b.counter.3__AT1 () Bool)
(declare-fun b.x__AT1 () Real)
(declare-fun b.bool_atom__AT0 () Bool)
(declare-fun b.counter.3__AT3 () Bool)
(declare-fun b.delta__AT3 () Real)
(declare-fun b.x__AT0 () Real)
(declare-fun b.bool_atom__AT3 () Bool)
(declare-fun b.EVENT.0__AT3 () Bool)
(declare-fun b.delta__AT1 () Real)
(declare-fun b.speed_y__AT1 () Real)
(declare-fun b.x__AT2 () Real)
(declare-fun b.time__AT1 () Real)
(declare-fun b.EVENT.0__AT1 () Bool)
(declare-fun b.counter.0__AT2 () Bool)
(assert (let ((.def_622 (* 5.0 b.delta__AT3)))
(let ((.def_623 (* b.delta__AT3 .def_622)))
(let ((.def_624 (* (- 1.0) .def_623)))
(let ((.def_620 (* b.speed_y__AT3 b.delta__AT3)))
(let ((.def_627 (+ .def_620 .def_624)))
(let ((.def_617 (* b.x__AT3 b.x__AT3)))
(let ((.def_628 (+ .def_617 .def_627)))
(let ((.def_629 (+ b.y__AT3 .def_628)))
(let ((.def_630 (<= 0.0 .def_629)))
(let ((.def_618 (+ b.y__AT3 .def_617)))
(let ((.def_619 (<= 0.0 .def_618)))
(let ((.def_631 (and .def_619 .def_630)))
(let ((.def_615 (<= 0.0 b.delta__AT3)))
(let ((.def_616 (not .def_615)))
(let ((.def_632 (or .def_616 .def_631)))
(let ((.def_598 (not b.EVENT.0__AT3)))
(let ((.def_596 (not b.EVENT.1__AT3)))
(let ((.def_612 (and .def_596 .def_598)))
(let ((.def_613 (not .def_612)))
(let ((.def_633 (or .def_613 .def_632)))
(let ((.def_342 (not b.counter.0__AT2)))
(let ((.def_332 (not b.counter.1__AT2)))
(let ((.def_607 (and .def_332 .def_342)))
(let ((.def_337 (not b.counter.2__AT2)))
(let ((.def_608 (and .def_337 .def_607)))
(let ((.def_351 (not b.counter.3__AT2)))
(let ((.def_609 (and .def_351 .def_608)))
(let ((.def_601 (* (- 1.0) b.x__AT3)))
(let ((.def_602 (* b.x__AT3 .def_601)))
(let ((.def_603 (<= .def_602 b.y__AT3)))
(let ((.def_60 (<= b.g__AT0 10.0 )))
(let ((.def_59 (<= 8.0 b.g__AT0)))
(let ((.def_61 (and .def_59 .def_60)))
(let ((.def_604 (and .def_61 .def_603)))
(let ((.def_599 (or .def_596 .def_598)))
(let ((.def_6 (not b.counter.0__AT3)))
(let ((.def_4 (not b.counter.1__AT3)))
(let ((.def_589 (or .def_4 .def_6)))
(let ((.def_593 (or b.counter.3__AT3 .def_589)))
(let ((.def_590 (or b.counter.2__AT3 .def_589)))
(let ((.def_9 (not b.counter.2__AT3)))
(let ((.def_588 (or .def_6 .def_9)))
(let ((.def_591 (and .def_588 .def_590)))
(let ((.def_12 (not b.counter.3__AT3)))
(let ((.def_592 (or .def_12 .def_591)))
(let ((.def_594 (and .def_592 .def_593)))
(let ((.def_600 (and .def_594 .def_599)))
(let ((.def_605 (and .def_600 .def_604)))
(let ((.def_440 (<= 0.0 b.delta__AT2)))
(let ((.def_423 (not b.EVENT.0__AT2)))
(let ((.def_421 (not b.EVENT.1__AT2)))
(let ((.def_437 (and .def_421 .def_423)))
(let ((.def_438 (not .def_437)))
(let ((.def_584 (or .def_438 .def_440)))
(let ((.def_585 (or b.EVENT.1__AT2 .def_584)))
(let ((.def_495 (= b.bool_atom__AT2 b.bool_atom__AT3)))
(let ((.def_491 (= b.counter.0__AT3 b.counter.0__AT2)))
(let ((.def_489 (= b.counter.1__AT3 b.counter.1__AT2)))
(let ((.def_487 (= b.counter.2__AT3 b.counter.2__AT2)))
(let ((.def_486 (= b.counter.3__AT3 b.counter.3__AT2)))
(let ((.def_488 (and .def_486 .def_487)))
(let ((.def_490 (and .def_488 .def_489)))
(let ((.def_492 (and .def_490 .def_491)))
(let ((.def_580 (and .def_492 .def_495)))
(let ((.def_581 (or .def_438 .def_580)))
(let ((.def_582 (or b.EVENT.1__AT2 .def_581)))
(let ((.def_199 (* (- 1.0) b.g__AT0)))
(let ((.def_569 (* .def_199 b.delta__AT2)))
(let ((.def_570 (* (- 1.0) b.speed_y__AT3)))
(let ((.def_573 (+ .def_570 .def_569)))
(let ((.def_574 (+ b.speed_y__AT2 .def_573)))
(let ((.def_575 (= .def_574 0.0 )))
(let ((.def_558 (* b.delta__AT2 b.delta__AT2)))
(let ((.def_202 (* (/ 1 2) .def_199)))
(let ((.def_559 (* .def_202 .def_558)))
(let ((.def_560 (* (- 1.0) b.y__AT3)))
(let ((.def_564 (+ .def_560 .def_559)))
(let ((.def_445 (* b.speed_y__AT2 b.delta__AT2)))
(let ((.def_565 (+ .def_445 .def_564)))
(let ((.def_566 (+ b.y__AT2 .def_565)))
(let ((.def_567 (= .def_566 0.0 )))
(let ((.def_478 (= b.x__AT2 b.x__AT3)))
(let ((.def_568 (and .def_478 .def_567)))
(let ((.def_576 (and .def_568 .def_575)))
(let ((.def_577 (or .def_438 .def_576)))
(let ((.def_481 (= b.y__AT2 b.y__AT3)))
(let ((.def_553 (and .def_478 .def_481)))
(let ((.def_484 (= b.speed_y__AT2 b.speed_y__AT3)))
(let ((.def_554 (and .def_484 .def_553)))
(let ((.def_550 (= b.delta__AT2 0.0 )))
(let ((.def_551 (and .def_437 .def_550)))
(let ((.def_552 (not .def_551)))
(let ((.def_555 (or .def_552 .def_554)))
(let ((.def_556 (or b.EVENT.1__AT2 .def_555)))
(let ((.def_543 (and .def_484 .def_492)))
(let ((.def_544 (or b.bool_atom__AT2 .def_543)))
(let ((.def_519 (or .def_6 b.counter.0__AT2)))
(let ((.def_518 (or b.counter.0__AT3 .def_342)))
(let ((.def_520 (and .def_518 .def_519)))
(let ((.def_521 (and .def_4 .def_520)))
(let ((.def_522 (or b.counter.1__AT2 .def_521)))
(let ((.def_517 (or b.counter.1__AT3 .def_332)))
(let ((.def_523 (and .def_517 .def_522)))
(let ((.def_534 (and .def_9 .def_523)))
(let ((.def_535 (or b.counter.2__AT2 .def_534)))
(let ((.def_529 (and .def_4 .def_342)))
(let ((.def_530 (or b.counter.1__AT2 .def_529)))
(let ((.def_531 (and .def_517 .def_530)))
(let ((.def_532 (and b.counter.2__AT3 .def_531)))
(let ((.def_533 (or .def_337 .def_532)))
(let ((.def_536 (and .def_533 .def_535)))
(let ((.def_537 (and b.counter.3__AT3 .def_536)))
(let ((.def_538 (or b.counter.3__AT2 .def_537)))
(let ((.def_524 (and b.counter.2__AT3 .def_523)))
(let ((.def_525 (or b.counter.2__AT2 .def_524)))
(let ((.def_513 (or b.counter.1__AT3 b.counter.1__AT2)))
(let ((.def_511 (and .def_4 b.counter.0__AT3)))
(let ((.def_512 (or .def_332 .def_511)))
(let ((.def_514 (and .def_512 .def_513)))
(let ((.def_515 (and .def_9 .def_514)))
(let ((.def_516 (or .def_337 .def_515)))
(let ((.def_526 (and .def_516 .def_525)))
(let ((.def_527 (and .def_12 .def_526)))
(let ((.def_528 (or .def_351 .def_527)))
(let ((.def_539 (and .def_528 .def_538)))
(let ((.def_508 (* b.speed_y__AT3 b.speed_y__AT3)))
(let ((.def_329 (* b.speed_y__AT2 b.speed_y__AT2)))
(let ((.def_509 (= .def_329 .def_508)))
(let ((.def_506 (+ b.speed_y__AT2 b.speed_y__AT3)))
(let ((.def_507 (= .def_506 0.0 )))
(let ((.def_510 (and .def_507 .def_509)))
(let ((.def_540 (and .def_510 .def_539)))
(let ((.def_505 (not b.bool_atom__AT2)))
(let ((.def_541 (or .def_505 .def_540)))
(let ((.def_501 (<= 0.0 b.speed_y__AT2)))
(let ((.def_502 (not .def_501)))
(let ((.def_426 (* (- 1.0) b.x__AT2)))
(let ((.def_427 (* b.x__AT2 .def_426)))
(let ((.def_500 (= b.y__AT2 .def_427)))
(let ((.def_503 (and .def_500 .def_502)))
(let ((.def_504 (= b.bool_atom__AT2 .def_503)))
(let ((.def_542 (and .def_504 .def_541)))
(let ((.def_545 (and .def_542 .def_544)))
(let ((.def_546 (and .def_478 .def_545)))
(let ((.def_547 (and .def_481 .def_546)))
(let ((.def_548 (or .def_437 .def_547)))
(let ((.def_549 (or b.EVENT.1__AT2 .def_548)))
(let ((.def_557 (and .def_549 .def_556)))
(let ((.def_578 (and .def_557 .def_577)))
(let ((.def_465 (= b.time__AT2 b.time__AT3)))
(let ((.def_479 (and .def_465 .def_478)))
(let ((.def_482 (and .def_479 .def_481)))
(let ((.def_485 (and .def_482 .def_484)))
(let ((.def_493 (and .def_485 .def_492)))
(let ((.def_496 (and .def_493 .def_495)))
(let ((.def_497 (or .def_421 .def_496)))
(let ((.def_468 (* (- 1.0) b.time__AT3)))
(let ((.def_471 (+ b.delta__AT2 .def_468)))
(let ((.def_472 (+ b.time__AT2 .def_471)))
(let ((.def_473 (= .def_472 0.0 )))
(let ((.def_474 (or .def_438 .def_473)))
(let ((.def_475 (or b.EVENT.1__AT2 .def_474)))
(let ((.def_466 (or .def_437 .def_465)))
(let ((.def_467 (or b.EVENT.1__AT2 .def_466)))
(let ((.def_476 (and .def_467 .def_475)))
(let ((.def_498 (and .def_476 .def_497)))
(let ((.def_462 (= .def_438 b.event_is_timed__AT3)))
(let ((.def_460 (= b.event_is_timed__AT2 .def_437)))
(let ((.def_463 (and .def_460 .def_462)))
(let ((.def_499 (and .def_463 .def_498)))
(let ((.def_579 (and .def_499 .def_578)))
(let ((.def_583 (and .def_579 .def_582)))
(let ((.def_586 (and .def_583 .def_585)))
(let ((.def_587 (and .def_421 .def_586)))
(let ((.def_606 (and .def_587 .def_605)))
(let ((.def_610 (and .def_606 .def_609)))
(let ((.def_447 (* 5.0 b.delta__AT2)))
(let ((.def_448 (* b.delta__AT2 .def_447)))
(let ((.def_449 (* (- 1.0) .def_448)))
(let ((.def_452 (+ .def_445 .def_449)))
(let ((.def_442 (* b.x__AT2 b.x__AT2)))
(let ((.def_453 (+ .def_442 .def_452)))
(let ((.def_454 (+ b.y__AT2 .def_453)))
(let ((.def_455 (<= 0.0 .def_454)))
(let ((.def_443 (+ b.y__AT2 .def_442)))
(let ((.def_444 (<= 0.0 .def_443)))
(let ((.def_456 (and .def_444 .def_455)))
(let ((.def_441 (not .def_440)))
(let ((.def_457 (or .def_441 .def_456)))
(let ((.def_458 (or .def_438 .def_457)))
(let ((.def_158 (not b.counter.0__AT1)))
(let ((.def_148 (not b.counter.1__AT1)))
(let ((.def_432 (and .def_148 .def_158)))
(let ((.def_153 (not b.counter.2__AT1)))
(let ((.def_433 (and .def_153 .def_432)))
(let ((.def_167 (not b.counter.3__AT1)))
(let ((.def_434 (and .def_167 .def_433)))
(let ((.def_428 (<= .def_427 b.y__AT2)))
(let ((.def_429 (and .def_61 .def_428)))
(let ((.def_424 (or .def_421 .def_423)))
(let ((.def_414 (or .def_332 .def_342)))
(let ((.def_418 (or b.counter.3__AT2 .def_414)))
(let ((.def_415 (or b.counter.2__AT2 .def_414)))
(let ((.def_413 (or .def_337 .def_342)))
(let ((.def_416 (and .def_413 .def_415)))
(let ((.def_417 (or .def_351 .def_416)))
(let ((.def_419 (and .def_417 .def_418)))
(let ((.def_425 (and .def_419 .def_424)))
(let ((.def_430 (and .def_425 .def_429)))
(let ((.def_257 (<= 0.0 b.delta__AT1)))
(let ((.def_243 (not b.EVENT.0__AT1)))
(let ((.def_241 (not b.EVENT.1__AT1)))
(let ((.def_254 (and .def_241 .def_243)))
(let ((.def_255 (not .def_254)))
(let ((.def_409 (or .def_255 .def_257)))
(let ((.def_410 (or b.EVENT.1__AT1 .def_409)))
(let ((.def_316 (= b.bool_atom__AT1 b.bool_atom__AT2)))
(let ((.def_312 (= b.counter.0__AT1 b.counter.0__AT2)))
(let ((.def_309 (= b.counter.1__AT1 b.counter.1__AT2)))
(let ((.def_306 (= b.counter.2__AT1 b.counter.2__AT2)))
(let ((.def_304 (= b.counter.3__AT1 b.counter.3__AT2)))
(let ((.def_307 (and .def_304 .def_306)))
(let ((.def_310 (and .def_307 .def_309)))
(let ((.def_313 (and .def_310 .def_312)))
(let ((.def_405 (and .def_313 .def_316)))
(let ((.def_406 (or .def_255 .def_405)))
(let ((.def_407 (or b.EVENT.1__AT1 .def_406)))
(let ((.def_394 (* .def_199 b.delta__AT1)))
(let ((.def_395 (* (- 1.0) b.speed_y__AT2)))
(let ((.def_398 (+ .def_395 .def_394)))
(let ((.def_399 (+ b.speed_y__AT1 .def_398)))
(let ((.def_400 (= .def_399 0.0 )))
(let ((.def_383 (* b.delta__AT1 b.delta__AT1)))
(let ((.def_384 (* .def_202 .def_383)))
(let ((.def_385 (* (- 1.0) b.y__AT2)))
(let ((.def_389 (+ .def_385 .def_384)))
(let ((.def_262 (* b.speed_y__AT1 b.delta__AT1)))
(let ((.def_390 (+ .def_262 .def_389)))
(let ((.def_391 (+ b.y__AT1 .def_390)))
(let ((.def_392 (= .def_391 0.0 )))
(let ((.def_295 (= b.x__AT1 b.x__AT2)))
(let ((.def_393 (and .def_295 .def_392)))
(let ((.def_401 (and .def_393 .def_400)))
(let ((.def_402 (or .def_255 .def_401)))
(let ((.def_298 (= b.y__AT1 b.y__AT2)))
(let ((.def_378 (and .def_295 .def_298)))
(let ((.def_301 (= b.speed_y__AT1 b.speed_y__AT2)))
(let ((.def_379 (and .def_301 .def_378)))
(let ((.def_375 (= b.delta__AT1 0.0 )))
(let ((.def_376 (and .def_254 .def_375)))
(let ((.def_377 (not .def_376)))
(let ((.def_380 (or .def_377 .def_379)))
(let ((.def_381 (or b.EVENT.1__AT1 .def_380)))
(let ((.def_368 (and .def_301 .def_313)))
(let ((.def_369 (or b.bool_atom__AT1 .def_368)))
(let ((.def_343 (or b.counter.0__AT1 .def_342)))
(let ((.def_341 (or .def_158 b.counter.0__AT2)))
(let ((.def_344 (and .def_341 .def_343)))
(let ((.def_345 (and .def_332 .def_344)))
(let ((.def_346 (or b.counter.1__AT1 .def_345)))
(let ((.def_340 (or .def_148 b.counter.1__AT2)))
(let ((.def_347 (and .def_340 .def_346)))
(let ((.def_359 (and .def_337 .def_347)))
(let ((.def_360 (or b.counter.2__AT1 .def_359)))
(let ((.def_354 (and .def_158 .def_332)))
(let ((.def_355 (or b.counter.1__AT1 .def_354)))
(let ((.def_356 (and .def_340 .def_355)))
(let ((.def_357 (and b.counter.2__AT2 .def_356)))
(let ((.def_358 (or .def_153 .def_357)))
(let ((.def_361 (and .def_358 .def_360)))
(let ((.def_362 (and b.counter.3__AT2 .def_361)))
(let ((.def_363 (or b.counter.3__AT1 .def_362)))
(let ((.def_348 (and b.counter.2__AT2 .def_347)))
(let ((.def_349 (or b.counter.2__AT1 .def_348)))
(let ((.def_335 (or b.counter.1__AT1 b.counter.1__AT2)))
(let ((.def_333 (and b.counter.0__AT2 .def_332)))
(let ((.def_334 (or .def_148 .def_333)))
(let ((.def_336 (and .def_334 .def_335)))
(let ((.def_338 (and .def_336 .def_337)))
(let ((.def_339 (or .def_153 .def_338)))
(let ((.def_350 (and .def_339 .def_349)))
(let ((.def_352 (and .def_350 .def_351)))
(let ((.def_353 (or .def_167 .def_352)))
(let ((.def_364 (and .def_353 .def_363)))
(let ((.def_144 (* b.speed_y__AT1 b.speed_y__AT1)))
(let ((.def_330 (= .def_144 .def_329)))
(let ((.def_327 (+ b.speed_y__AT1 b.speed_y__AT2)))
(let ((.def_328 (= .def_327 0.0 )))
(let ((.def_331 (and .def_328 .def_330)))
(let ((.def_365 (and .def_331 .def_364)))
(let ((.def_326 (not b.bool_atom__AT1)))
(let ((.def_366 (or .def_326 .def_365)))
(let ((.def_322 (<= 0.0 b.speed_y__AT1)))
(let ((.def_323 (not .def_322)))
(let ((.def_246 (* (- 1.0) b.x__AT1)))
(let ((.def_247 (* b.x__AT1 .def_246)))
(let ((.def_321 (= b.y__AT1 .def_247)))
(let ((.def_324 (and .def_321 .def_323)))
(let ((.def_325 (= b.bool_atom__AT1 .def_324)))
(let ((.def_367 (and .def_325 .def_366)))
(let ((.def_370 (and .def_367 .def_369)))
(let ((.def_371 (and .def_295 .def_370)))
(let ((.def_372 (and .def_298 .def_371)))
(let ((.def_373 (or .def_254 .def_372)))
(let ((.def_374 (or b.EVENT.1__AT1 .def_373)))
(let ((.def_382 (and .def_374 .def_381)))
(let ((.def_403 (and .def_382 .def_402)))
(let ((.def_282 (= b.time__AT1 b.time__AT2)))
(let ((.def_296 (and .def_282 .def_295)))
(let ((.def_299 (and .def_296 .def_298)))
(let ((.def_302 (and .def_299 .def_301)))
(let ((.def_314 (and .def_302 .def_313)))
(let ((.def_317 (and .def_314 .def_316)))
(let ((.def_318 (or .def_241 .def_317)))
(let ((.def_285 (* (- 1.0) b.time__AT2)))
(let ((.def_288 (+ b.delta__AT1 .def_285)))
(let ((.def_289 (+ b.time__AT1 .def_288)))
(let ((.def_290 (= .def_289 0.0 )))
(let ((.def_291 (or .def_255 .def_290)))
(let ((.def_292 (or b.EVENT.1__AT1 .def_291)))
(let ((.def_283 (or .def_254 .def_282)))
(let ((.def_284 (or b.EVENT.1__AT1 .def_283)))
(let ((.def_293 (and .def_284 .def_292)))
(let ((.def_319 (and .def_293 .def_318)))
(let ((.def_279 (= .def_255 b.event_is_timed__AT2)))
(let ((.def_277 (= b.event_is_timed__AT1 .def_254)))
(let ((.def_280 (and .def_277 .def_279)))
(let ((.def_320 (and .def_280 .def_319)))
(let ((.def_404 (and .def_320 .def_403)))
(let ((.def_408 (and .def_404 .def_407)))
(let ((.def_411 (and .def_408 .def_410)))
(let ((.def_412 (and .def_241 .def_411)))
(let ((.def_431 (and .def_412 .def_430)))
(let ((.def_435 (and .def_431 .def_434)))
(let ((.def_264 (* 5.0 b.delta__AT1)))
(let ((.def_265 (* b.delta__AT1 .def_264)))
(let ((.def_266 (* (- 1.0) .def_265)))
(let ((.def_269 (+ .def_262 .def_266)))
(let ((.def_259 (* b.x__AT1 b.x__AT1)))
(let ((.def_270 (+ .def_259 .def_269)))
(let ((.def_271 (+ b.y__AT1 .def_270)))
(let ((.def_272 (<= 0.0 .def_271)))
(let ((.def_260 (+ b.y__AT1 .def_259)))
(let ((.def_261 (<= 0.0 .def_260)))
(let ((.def_273 (and .def_261 .def_272)))
(let ((.def_258 (not .def_257)))
(let ((.def_274 (or .def_258 .def_273)))
(let ((.def_275 (or .def_255 .def_274)))
(let ((.def_248 (<= .def_247 b.y__AT1)))
(let ((.def_249 (and .def_61 .def_248)))
(let ((.def_244 (or .def_241 .def_243)))
(let ((.def_234 (or .def_148 .def_158)))
(let ((.def_238 (or b.counter.3__AT1 .def_234)))
(let ((.def_235 (or b.counter.2__AT1 .def_234)))
(let ((.def_233 (or .def_153 .def_158)))
(let ((.def_236 (and .def_233 .def_235)))
(let ((.def_237 (or .def_167 .def_236)))
(let ((.def_239 (and .def_237 .def_238)))
(let ((.def_245 (and .def_239 .def_244)))
(let ((.def_250 (and .def_245 .def_249)))
(let ((.def_69 (<= 0.0 b.delta__AT0)))
(let ((.def_49 (not b.EVENT.0__AT0)))
(let ((.def_47 (not b.EVENT.1__AT0)))
(let ((.def_66 (and .def_47 .def_49)))
(let ((.def_67 (not .def_66)))
(let ((.def_229 (or .def_67 .def_69)))
(let ((.def_230 (or b.EVENT.1__AT0 .def_229)))
(let ((.def_131 (= b.bool_atom__AT0 b.bool_atom__AT1)))
(let ((.def_126 (= b.counter.0__AT0 b.counter.0__AT1)))
(let ((.def_123 (= b.counter.1__AT0 b.counter.1__AT1)))
(let ((.def_120 (= b.counter.2__AT0 b.counter.2__AT1)))
(let ((.def_118 (= b.counter.3__AT0 b.counter.3__AT1)))
(let ((.def_121 (and .def_118 .def_120)))
(let ((.def_124 (and .def_121 .def_123)))
(let ((.def_127 (and .def_124 .def_126)))
(let ((.def_225 (and .def_127 .def_131)))
(let ((.def_226 (or .def_67 .def_225)))
(let ((.def_227 (or b.EVENT.1__AT0 .def_226)))
(let ((.def_214 (* b.delta__AT0 .def_199)))
(let ((.def_215 (* (- 1.0) b.speed_y__AT1)))
(let ((.def_218 (+ .def_215 .def_214)))
(let ((.def_219 (+ b.speed_y__AT0 .def_218)))
(let ((.def_220 (= .def_219 0.0 )))
(let ((.def_203 (* b.delta__AT0 b.delta__AT0)))
(let ((.def_204 (* .def_202 .def_203)))
(let ((.def_206 (* (- 1.0) b.y__AT1)))
(let ((.def_209 (+ .def_206 .def_204)))
(let ((.def_75 (* b.delta__AT0 b.speed_y__AT0)))
(let ((.def_210 (+ .def_75 .def_209)))
(let ((.def_211 (+ b.y__AT0 .def_210)))
(let ((.def_212 (= .def_211 0.0 )))
(let ((.def_109 (= b.x__AT0 b.x__AT1)))
(let ((.def_213 (and .def_109 .def_212)))
(let ((.def_221 (and .def_213 .def_220)))
(let ((.def_222 (or .def_67 .def_221)))
(let ((.def_112 (= b.y__AT0 b.y__AT1)))
(let ((.def_194 (and .def_109 .def_112)))
(let ((.def_115 (= b.speed_y__AT0 b.speed_y__AT1)))
(let ((.def_195 (and .def_115 .def_194)))
(let ((.def_191 (= b.delta__AT0 0.0 )))
(let ((.def_192 (and .def_66 .def_191)))
(let ((.def_193 (not .def_192)))
(let ((.def_196 (or .def_193 .def_195)))
(let ((.def_197 (or b.EVENT.1__AT0 .def_196)))
(let ((.def_184 (and .def_115 .def_127)))
(let ((.def_185 (or b.bool_atom__AT0 .def_184)))
(let ((.def_159 (or b.counter.0__AT0 .def_158)))
(let ((.def_30 (not b.counter.0__AT0)))
(let ((.def_157 (or .def_30 b.counter.0__AT1)))
(let ((.def_160 (and .def_157 .def_159)))
(let ((.def_161 (and .def_148 .def_160)))
(let ((.def_162 (or b.counter.1__AT0 .def_161)))
(let ((.def_28 (not b.counter.1__AT0)))
(let ((.def_156 (or .def_28 b.counter.1__AT1)))
(let ((.def_163 (and .def_156 .def_162)))
(let ((.def_175 (and .def_153 .def_163)))
(let ((.def_176 (or b.counter.2__AT0 .def_175)))
(let ((.def_170 (and .def_30 .def_148)))
(let ((.def_171 (or b.counter.1__AT0 .def_170)))
(let ((.def_172 (and .def_156 .def_171)))
(let ((.def_173 (and b.counter.2__AT1 .def_172)))
(let ((.def_33 (not b.counter.2__AT0)))
(let ((.def_174 (or .def_33 .def_173)))
(let ((.def_177 (and .def_174 .def_176)))
(let ((.def_178 (and b.counter.3__AT1 .def_177)))
(let ((.def_179 (or b.counter.3__AT0 .def_178)))
(let ((.def_164 (and b.counter.2__AT1 .def_163)))
(let ((.def_165 (or b.counter.2__AT0 .def_164)))
(let ((.def_151 (or b.counter.1__AT0 b.counter.1__AT1)))
(let ((.def_149 (and b.counter.0__AT1 .def_148)))
(let ((.def_150 (or .def_28 .def_149)))
(let ((.def_152 (and .def_150 .def_151)))
(let ((.def_154 (and .def_152 .def_153)))
(let ((.def_155 (or .def_33 .def_154)))
(let ((.def_166 (and .def_155 .def_165)))
(let ((.def_168 (and .def_166 .def_167)))
(let ((.def_36 (not b.counter.3__AT0)))
(let ((.def_169 (or .def_36 .def_168)))
(let ((.def_180 (and .def_169 .def_179)))
(let ((.def_145 (* b.speed_y__AT0 b.speed_y__AT0)))
(let ((.def_146 (= .def_144 .def_145)))
(let ((.def_142 (+ b.speed_y__AT0 b.speed_y__AT1)))
(let ((.def_143 (= .def_142 0.0 )))
(let ((.def_147 (and .def_143 .def_146)))
(let ((.def_181 (and .def_147 .def_180)))
(let ((.def_141 (not b.bool_atom__AT0)))
(let ((.def_182 (or .def_141 .def_181)))
(let ((.def_137 (<= 0.0 b.speed_y__AT0)))
(let ((.def_138 (not .def_137)))
(let ((.def_54 (* (- 1.0) b.x__AT0)))
(let ((.def_55 (* b.x__AT0 .def_54)))
(let ((.def_136 (= b.y__AT0 .def_55)))
(let ((.def_139 (and .def_136 .def_138)))
(let ((.def_140 (= b.bool_atom__AT0 .def_139)))
(let ((.def_183 (and .def_140 .def_182)))
(let ((.def_186 (and .def_183 .def_185)))
(let ((.def_187 (and .def_109 .def_186)))
(let ((.def_188 (and .def_112 .def_187)))
(let ((.def_189 (or .def_66 .def_188)))
(let ((.def_190 (or b.EVENT.1__AT0 .def_189)))
(let ((.def_198 (and .def_190 .def_197)))
(let ((.def_223 (and .def_198 .def_222)))
(let ((.def_96 (= b.time__AT0 b.time__AT1)))
(let ((.def_110 (and .def_96 .def_109)))
(let ((.def_113 (and .def_110 .def_112)))
(let ((.def_116 (and .def_113 .def_115)))
(let ((.def_128 (and .def_116 .def_127)))
(let ((.def_132 (and .def_128 .def_131)))
(let ((.def_133 (or .def_47 .def_132)))
(let ((.def_99 (* (- 1.0) b.time__AT1)))
(let ((.def_102 (+ b.delta__AT0 .def_99)))
(let ((.def_103 (+ b.time__AT0 .def_102)))
(let ((.def_104 (= .def_103 0.0 )))
(let ((.def_105 (or .def_67 .def_104)))
(let ((.def_106 (or b.EVENT.1__AT0 .def_105)))
(let ((.def_97 (or .def_66 .def_96)))
(let ((.def_98 (or b.EVENT.1__AT0 .def_97)))
(let ((.def_107 (and .def_98 .def_106)))
(let ((.def_134 (and .def_107 .def_133)))
(let ((.def_93 (= .def_67 b.event_is_timed__AT1)))
(let ((.def_91 (= b.event_is_timed__AT0 .def_66)))
(let ((.def_94 (and .def_91 .def_93)))
(let ((.def_135 (and .def_94 .def_134)))
(let ((.def_224 (and .def_135 .def_223)))
(let ((.def_228 (and .def_224 .def_227)))
(let ((.def_231 (and .def_228 .def_230)))
(let ((.def_232 (and .def_47 .def_231)))
(let ((.def_251 (and .def_232 .def_250)))
(let ((.def_31 (and .def_28 .def_30)))
(let ((.def_34 (and .def_31 .def_33)))
(let ((.def_37 (and .def_34 .def_36)))
(let ((.def_252 (and .def_37 .def_251)))
(let ((.def_78 (* 5.0 b.delta__AT0)))
(let ((.def_79 (* b.delta__AT0 .def_78)))
(let ((.def_80 (* (- 1.0) .def_79)))
(let ((.def_83 (+ .def_75 .def_80)))
(let ((.def_71 (* b.x__AT0 b.x__AT0)))
(let ((.def_84 (+ .def_71 .def_83)))
(let ((.def_85 (+ b.y__AT0 .def_84)))
(let ((.def_86 (<= 0.0 .def_85)))
(let ((.def_72 (+ b.y__AT0 .def_71)))
(let ((.def_73 (<= 0.0 .def_72)))
(let ((.def_87 (and .def_73 .def_86)))
(let ((.def_70 (not .def_69)))
(let ((.def_88 (or .def_70 .def_87)))
(let ((.def_89 (or .def_67 .def_88)))
(let ((.def_56 (<= .def_55 b.y__AT0)))
(let ((.def_62 (and .def_56 .def_61)))
(let ((.def_50 (or .def_47 .def_49)))
(let ((.def_40 (or .def_28 .def_30)))
(let ((.def_44 (or b.counter.3__AT0 .def_40)))
(let ((.def_41 (or b.counter.2__AT0 .def_40)))
(let ((.def_39 (or .def_30 .def_33)))
(let ((.def_42 (and .def_39 .def_41)))
(let ((.def_43 (or .def_36 .def_42)))
(let ((.def_45 (and .def_43 .def_44)))
(let ((.def_51 (and .def_45 .def_50)))
(let ((.def_63 (and .def_51 .def_62)))
(let ((.def_25 (= b.y__AT0 10.0 )))
(let ((.def_21 (= b.x__AT0 0.0 )))
(let ((.def_17 (= b.time__AT0 0.0 )))
(let ((.def_19 (and .def_17 b.event_is_timed__AT0)))
(let ((.def_22 (and .def_19 .def_21)))
(let ((.def_26 (and .def_22 .def_25)))
(let ((.def_38 (and .def_26 .def_37)))
(let ((.def_64 (and .def_38 .def_63)))
(let ((.def_7 (and .def_4 .def_6)))
(let ((.def_10 (and .def_7 .def_9)))
(let ((.def_13 (and .def_10 .def_12)))
(let ((.def_14 (not .def_13)))
(let ((.def_65 (and .def_14 .def_64)))
(let ((.def_90 (and .def_65 .def_89)))
(let ((.def_253 (and .def_90 .def_252)))
(let ((.def_276 (and .def_253 .def_275)))
(let ((.def_436 (and .def_276 .def_435)))
(let ((.def_459 (and .def_436 .def_458)))
(let ((.def_611 (and .def_459 .def_610)))
(let ((.def_634 (and .def_611 .def_633)))
.def_634)))))))))))))))))))))))))))))))))))))))))))))))))))))))))))))))))))))))))))))))))))))))))))))))))))))))))))))))))))))))))))))))))))))))))))))))))))))))))))))))))))))))))))))))))))))))))))))))))))))))))))))))))))))))))))))))))))))))))))))))))))))))))))))))))))))))))))))))))))))))))))))))))))))))))))))))))))))))))))))))))))))))))))))))))))))))))))))))))))))))))))))))))))))))))))))))))))))))))))))))))))))))))))))))))))))))))))))))))))))))))))))))))))))))))))))))))))))))))))))))))))))))))))))))))))))))))))))))))))))))))))))))))))))))))))
(check-sat)
(exit)
